exemples/tu.in
5 7
-1 0 1 0 -1 0 0
0 1 0 1 1 0 1
-1 1 0 0 0 0 0
0 0 1 0 0 1 1
0 0 0 1 0 -1 0

/// outra matriz

4 6
-1 -1 0 0 0 1
1 0 -1 -1 0 0
0 1 1 0 -1 0
0 0 0 1 1 -1

/// matriz que não funciona

4 5
1 0 1 0 1
0 1 1 1 0
0 0 0 1 1
1 1 0 0 0